<number of tasks>
50

<cycle time>
1000

<order strength>
0.896


<task times>
1 534
2 104
3 111
4 187
5 443
6 34
7 464
8 537
9 82
10 163
11 195
12 131
13 271
14 127
15 65
16 557
17 65
18 179
19 218
20 273
21 351
22 84
23 359
24 203
25 345
26 79
27 186
28 186
29 261
30 385
31 260
32 58
33 105
34 75
35 82
36 344
37 186
38 443
39 179
40 34
41 402
42 296
43 51
44 150
45 150
46 55
47 471
48 248
49 84
50 47

<precedence relations>
1,3
1,6
2,3
2,4
2,5
3,8
3,9
4,7
4,8
4,9
5,8
6,7
7,10
7,11
7,12
8,10
8,11
8,12
9,10
9,11
9,12
10,13
10,14
10,15
11,13
11,14
11,15
12,13
12,14
12,15
13,16
13,17
14,16
14,17
15,16
15,17
16,18
16,19
16,20
17,18
17,19
17,20
18,21
18,22
18,23
19,21
19,22
19,23
20,21
20,22
20,23
21,24
21,25
22,24
22,25
23,24
23,25
24,26
24,27
24,28
25,26
25,27
25,28
26,29
26,30
26,31
27,29
27,30
27,31
28,29
28,30
28,31
29,32
29,33
30,32
30,33
31,32
31,33
32,34
32,35
32,36
33,34
34,37
35,38
35,39
36,48
37,42
38,40
39,41
40,42
40,43
40,44
41,43
42,47
42,48
43,46
44,45
47,50
48,49

<end>
